
Gurobi 8.1.1 (win64) logging started 11/24/19 12:59:52

Changed value of parameter LogFile to logs/full/ip/full-06-15-0.log
   Prev: gurobi.log  Default: 
Changed value of parameter LogToConsole to 0
   Prev: 1  Min: 0  Max: 1  Default: 1
Changed value of parameter TimeLimit to 3600.0
   Prev: 1e+100  Min: 0.0  Max: 1e+100  Default: 1e+100
Optimize a model with 3870 rows, 1832 columns and 14790 nonzeros
Variable types: 0 continuous, 1832 integer (1816 binary)
Coefficient statistics:
  Matrix range     [1e+00, 2e+02]
  Objective range  [1e+00, 1e+00]
  Bounds range     [1e+00, 1e+00]
  RHS range        [1e+00, 2e+02]
Presolve removed 3 rows and 3 columns
Presolve time: 0.17s
Presolved: 3867 rows, 1829 columns, 14781 nonzeros
Variable types: 0 continuous, 1829 integer (1813 binary)

Root relaxation: objective 4.333333e+00, 609 iterations, 0.02 seconds

    Nodes    |    Current Node    |     Objective Bounds      |     Work
 Expl Unexpl |  Obj  Depth IntInf | Incumbent    BestBd   Gap | It/Node Time

     0     0    4.33333    0  157          -    4.33333      -     -    0s
     0     0    6.00000    0   37          -    6.00000      -     -    0s
     0     0    6.00000    0   38          -    6.00000      -     -    0s
     0     0    6.00000    0   37          -    6.00000      -     -    0s
     0     0    6.00000    0   24          -    6.00000      -     -    0s
     0     0    6.00000    0   22          -    6.00000      -     -    0s
     0     0    6.00000    0   19          -    6.00000      -     -    1s
     0     0    6.00000    0   19          -    6.00000      -     -    1s
     0     0    6.00000    0   19          -    6.00000      -     -    1s
H    0     0                      16.0000000    6.00000  62.5%     -    1s
H    0     0                      14.0000000    6.00000  57.1%     -    1s
     0     0    6.00000    0   53   14.00000    6.00000  57.1%     -    2s
H    0     0                      13.0000000    6.00000  53.8%     -    2s
H    0     0                      12.0000000    6.00000  50.0%     -    2s
     0     0    6.00000    0   10   12.00000    6.00000  50.0%     -    2s
     0     0    6.00000    0   12   12.00000    6.00000  50.0%     -    2s
H    0     0                      11.0000000    6.00000  45.5%     -    2s
H    0     0                      10.0000000    6.00000  40.0%     -    2s
     0     0    6.00000    0   30   10.00000    6.00000  40.0%     -    2s
H    0     0                       9.0000000    6.00000  33.3%     -    2s
     0     0    6.00000    0   45    9.00000    6.00000  33.3%     -    2s
     0     0    6.00000    0   46    9.00000    6.00000  33.3%     -    2s
     0     0    6.00000    0   45    9.00000    6.00000  33.3%     -    2s
     0     0    6.00000    0   10    9.00000    6.00000  33.3%     -    2s
     0     0    6.00000    0    7    9.00000    6.00000  33.3%     -    2s
     0     0    6.00000    0   27    9.00000    6.00000  33.3%     -    2s
     0     0    6.00000    0   13    9.00000    6.00000  33.3%     -    2s
     0     0    6.00000    0   13    9.00000    6.00000  33.3%     -    2s
     0     0    6.00000    0   10    9.00000    6.00000  33.3%     -    2s
H    0     0                       6.0000000    6.00000  0.00%     -    2s
     0     0    6.00000    0    6    6.00000    6.00000  0.00%     -    2s

Cutting planes:
  MIR: 4
  StrongCG: 1
  Zero half: 1

Explored 1 nodes (16091 simplex iterations) in 2.79 seconds
Thread count was 4 (of 4 available processors)

Solution count 8: 6 9 10 ... 16

Optimal solution found (tolerance 1.00e-04)
Best objective 6.000000000000e+00, best bound 6.000000000000e+00, gap 0.0000%
